% Auto-generated by scripts/generate_dzn.py
% problem_type   = regex
% instance       = regex_21
% source_json    = instances_json/1_medium_blowup/regex_21.json
% blowup         = 9.766666666666667
% representation = NFA

mode = 1;

var_count = 42;
n_constraints = 2;
Q = 15;
S = 2;
q0 = [1, 1];
F = [{15}, {15}];
weights = [3, 4, 9, 1, 2, 1, 3, 5, 10, 7, 8, 4, 5, 1, 7, 2, 10, 8, 2, 1, 4, 2, 6, 4, 3, 1, 8, 9, 5, 8, 3, 8, 10, 8, 5, 2, 1, 9, 8, 4, 4, 7];
d_dfa = array3d(1..2, 1..15, 1..2, [
  % k = 1
    0, 0,
    0, 0,
    0, 0,
    0, 0,
    0, 0,
    0, 0,
    0, 0,
    0, 0,
    0, 0,
    0, 0,
    0, 0,
    0, 0,
    0, 0,
    0, 0,
    0, 0,

  % k = 2
    0, 0,
    0, 0,
    0, 0,
    0, 0,
    0, 0,
    0, 0,
    0, 0,
    0, 0,
    0, 0,
    0, 0,
    0, 0,
    0, 0,
    0, 0,
    0, 0,
    0, 0
]);
d_nfa = array3d(1..2, 1..15, 1..2, [
  % k = 1
    {1, 2}, {1},
    {3}, {},
    {}, {4},
    {5}, {5},
    {6}, {6},
    {7}, {7},
    {8}, {8},
    {9}, {9},
    {10}, {10},
    {11}, {11},
    {12}, {12},
    {13}, {13},
    {14}, {14},
    {15}, {15},
    {}, {},

  % k = 2
    {2}, {1},
    {3}, {2},
    {4}, {3},
    {5}, {4},
    {6}, {5},
    {7}, {6},
    {8}, {7},
    {9}, {8},
    {10}, {9},
    {11}, {10},
    {12}, {11},
    {13}, {12},
    {14}, {13},
    {15}, {14},
    {}, {15}
]);
